c Random 4-CNF over 20 variables and 60 clauses
c Generated with `cnfgen`
c (C) 2012-2016 Massimo Lauria <lauria.massimo@gmail.com>
c https://massimolauria.github.io/cnfgen
c
c COMMAND LINE: cnfgen --output tmp-4-20-60.dimacs --output-format dimacs randkcnf 4 20 60
c
c sdimacs generated by gen-sdimacs
c
p cnf 20 60
e 11 12 13 14 15 16 17 18 19 20 0
r 0.37 1 2 3 4 5 6 7 8 9 10 0
-1 -8 -16 -20 0
7 8 -18 20 0
4 -6 12 20 0
-2 -3 -8 -10 0
4 7 -9 -12 0
5 -9 18 -20 0
-2 12 14 -16 0
1 13 -14 -19 0
7 11 12 14 0
1 -2 -16 19 0
5 11 -13 -17 0
-1 -8 -13 18 0
-5 -11 -15 16 0
-6 7 -10 -17 0
3 -9 -15 -16 0
1 -10 11 12 0
-3 -6 -8 -17 0
3 5 -6 -11 0
-2 -3 9 -19 0
1 -3 -15 19 0
1 -11 12 15 0
-1 -5 -9 15 0
3 -9 14 15 0
5 10 14 -15 0
1 -6 -10 -12 0
-5 8 14 -16 0
1 -2 -7 11 0
3 -8 -9 11 0
-4 -6 -18 19 0
9 -12 -14 -16 0
11 -13 17 19 0
-2 4 7 -18 0
-2 -5 -7 -13 0
-4 13 14 19 0
-3 -4 -7 17 0
7 -13 -17 -19 0
-3 -6 10 -15 0
-5 6 13 -20 0
-7 11 -17 19 0
-2 11 -17 18 0
-8 16 17 -18 0
8 13 -15 -19 0
1 2 -8 -19 0
-3 6 -7 -11 0
-3 -9 -16 -18 0
-5 8 -11 -16 0
-11 -13 -15 16 0
-15 18 19 -20 0
3 -6 9 20 0
-4 12 -13 16 0
2 7 -11 -12 0
3 -6 11 -12 0
1 -16 18 -20 0
7 -8 -12 -17 0
-9 15 19 -20 0
-6 -11 17 -18 0
2 -6 10 11 0
-5 9 11 -15 0
-4 -13 -14 17 0
5 6 13 14 0
